Normalized Data/p04_28_normalized_split0.vrp
NAME:p04_28_NORMALIZED_split
BEST_KNOWN: 0
COMMENT: 0
DIMENSION: 624
CAPACITY: 100
EDGE_WEIGHT_FORMAT: FUNCTION
EDGE_WEIGHT_TYPE: EXACT_2D
NODE_COORD_SECTION
1 0.00000 0.00000
2 -23 8
3 -23 8
4 -23 8
5 -23 8
6 -23 8
7 -23 8
8 -21 -11
9 -21 -11
10 -21 -11
11 -21 -11
12 -21 -11
13 20 -31
14 20 -31
15 -40 -7
16 -40 -7
17 -40 -7
18 34 31
19 34 31
20 34 31
21 -37 30
22 -37 30
23 -37 30
24 -37 30
25 -37 30
26 -37 30
27 29 -36
28 29 -36
29 29 -36
30 29 -36
31 29 -36
32 29 -36
33 -27 -32
34 -27 -32
35 -27 -32
36 -27 -32
37 -27 -32
38 -27 -32
39 -35 -24
40 -35 -24
41 -35 -24
42 -35 -24
43 -35 -24
44 49 11
45 49 11
46 49 11
47 49 11
48 49 11
49 11 -2
50 11 -2
51 -48 -33
52 -48 -33
53 -48 -33
54 28 7
55 23 -47
56 23 -47
57 23 -47
58 23 -47
59 -48 16
60 -48 16
61 -48 16
62 -48 16
63 -48 16
64 26 31
65 26 31
66 26 31
67 26 31
68 26 31
69 0 15
70 0 15
71 0 15
72 0 15
73 0 15
74 -30 30
75 -30 30
76 -30 30
77 -30 30
78 -30 30
79 -30 30
80 30 48
81 30 48
82 30 48
83 30 48
84 30 48
85 30 48
86 -33 25
87 -33 25
88 -13 7
89 -13 7
90 -13 7
91 -44 43
92 -44 43
93 -44 43
94 -44 43
95 -44 43
96 -35 -1
97 -35 -1
98 -46 -20
99 -46 -20
100 -46 -20
101 -19 36
102 -19 36
103 -19 36
104 -19 36
105 -19 36
106 34 38
107 34 38
108 34 38
109 34 38
110 15 44
111 15 44
112 15 44
113 15 44
114 15 44
115 15 44
116 -49 42
117 -49 -17
118 -49 -17
119 -49 -17
120 -49 -17
121 30 -35
122 30 -35
123 30 -35
124 29 4
125 29 4
126 29 4
127 1 2
128 1 2
129 1 2
130 1 2
131 1 2
132 -21 -15
133 -21 -15
134 13 -18
135 13 -18
136 13 -18
137 13 -18
138 13 -18
139 13 -18
140 -41 -14
141 -41 -14
142 -41 -14
143 -41 -14
144 -15 31
145 -15 31
146 -15 31
147 -15 31
148 -15 31
149 -15 31
150 -15 31
151 23 30
152 23 30
153 23 30
154 23 30
155 23 30
156 -16 -25
157 -16 -25
158 -16 -25
159 12 28
160 12 28
161 19 20
162 19 20
163 19 20
164 19 20
165 19 20
166 19 20
167 22 22
168 22 22
169 22 22
170 22 22
171 35 10
172 35 10
173 35 10
174 35 10
175 35 10
176 35 10
177 6 -24
178 6 -24
179 6 -24
180 6 -24
181 6 -24
182 6 -24
183 -27 -7
184 -27 -7
185 -27 -7
186 -27 -7
187 -27 -7
188 33 48
189 33 48
190 33 48
191 33 48
192 33 48
193 -50 18
194 -50 18
195 -50 18
196 -50 18
197 -50 18
198 -18 -2
199 -18 -2
200 -18 -2
201 -18 -2
202 -18 -2
203 -18 -2
204 44 2
205 44 2
206 -31 40
207 -31 40
208 -31 40
209 -31 40
210 -31 40
211 3 -47
212 3 -47
213 3 -47
214 3 -47
215 3 -47
216 -23 -7
217 -23 -7
218 -23 -7
219 -23 -7
220 42 15
221 42 15
222 42 15
223 42 15
224 42 15
225 -29 37
226 -29 37
227 -29 37
228 -29 37
229 -48 3
230 -48 3
231 -48 3
232 -35 -50
233 -35 -50
234 -35 -50
235 -35 -50
236 -42 -38
237 -42 -38
238 -42 -38
239 -42 -38
240 -42 -38
241 -29 4
242 -29 4
243 -29 4
244 47 -44
245 47 -44
246 47 -44
247 47 -44
248 47 -44
249 47 -44
250 5 -27
251 5 -27
252 5 -27
253 5 -27
254 1 -28
255 1 -28
256 -21 16
257 -21 16
258 -21 16
259 -21 16
260 -21 16
261 23 -15
262 23 -15
263 23 -15
264 23 -15
265 -34 -43
266 -34 -43
267 -34 -43
268 -34 -43
269 -34 -43
270 -27 -1
271 -27 -1
272 -27 -1
273 -27 -1
274 5 13
275 7 -42
276 7 -42
277 7 -42
278 44 -7
279 44 -7
280 44 -7
281 44 -7
282 44 -7
283 10 -45
284 10 -45
285 10 -45
286 10 -45
287 10 -45
288 -33 -26
289 -33 -26
290 -33 -26
291 14 -30
292 14 -30
293 14 -30
294 14 -30
295 14 -30
296 14 -30
297 -28 -26
298 -28 -26
299 -28 -26
300 -27 39
301 -27 39
302 -27 39
303 -27 39
304 -27 39
305 6 -11
306 6 -11
307 6 -11
308 6 -11
309 6 -11
310 6 -11
311 -1 19
312 -1 19
313 -1 19
314 -1 19
315 21 -36
316 21 -36
317 21 -36
318 21 -36
319 21 -36
320 11 31
321 11 31
322 13 31
323 13 31
324 13 31
325 13 31
326 13 31
327 32 -25
328 32 -25
329 32 -25
330 32 -25
331 32 -25
332 23 22
333 23 22
334 23 22
335 23 22
336 23 22
337 23 22
338 23 22
339 36 35
340 36 35
341 36 35
342 36 35
343 36 35
344 36 35
345 35 -4
346 35 -4
347 35 -4
348 -39 -6
349 -39 -6
350 -39 -6
351 -39 -6
352 -39 -6
353 43 44
354 43 44
355 43 44
356 34 33
357 34 33
358 34 33
359 -24 -29
360 -24 -29
361 -24 -29
362 -24 -29
363 -24 -29
364 -24 -29
365 33 4
366 33 4
367 33 -9
368 33 -9
369 33 -9
370 33 -9
371 33 -9
372 33 -9
373 -43 43
374 -43 43
375 -43 43
376 -43 43
377 -43 43
378 -43 43
379 -45 -25
380 -45 -25
381 41 43
382 41 43
383 -8 49
384 -8 49
385 -8 49
386 24 33
387 24 33
388 -49 -38
389 -49 -38
390 -49 -38
391 31 -3
392 31 -3
393 31 -3
394 31 -3
395 11 -15
396 11 -15
397 11 -15
398 12 -36
399 12 -36
400 12 -36
401 12 -36
402 -10 10
403 -10 10
404 -10 10
405 -10 10
406 -10 10
407 44 17
408 44 17
409 44 17
410 44 17
411 6 -35
412 6 -35
413 6 -35
414 6 -35
415 6 -35
416 48 23
417 48 23
418 48 23
419 26 -38
420 26 -38
421 -3 2
422 -3 2
423 -3 2
424 -3 2
425 -3 2
426 -37 21
427 -37 21
428 9 -40
429 9 -40
430 9 -40
431 9 -40
432 11 0
433 11 0
434 11 0
435 14 -26
436 14 -26
437 -7 -22
438 -7 -22
439 -7 -22
440 -7 -22
441 -7 -22
442 -7 -22
443 -33 36
444 -33 36
445 -33 36
446 -33 36
447 -33 36
448 -33 36
449 44 35
450 44 35
451 44 35
452 15 31
453 15 31
454 15 31
455 15 31
456 34 -28
457 34 -28
458 34 -28
459 34 -28
460 -2 -5
461 -2 -5
462 -2 -5
463 -2 -5
464 -2 -5
465 -2 -5
466 49 -8
467 49 -8
468 -27 -45
469 -27 -45
470 -27 -45
471 -31 15
472 -31 15
473 -31 15
474 -31 15
475 -31 15
476 -8 -13
477 -8 -13
478 -8 -13
479 -8 -13
480 -8 -13
481 -8 -13
482 4 -31
483 4 -31
484 27 -8
485 27 -8
486 27 -8
487 27 -8
488 -2 -12
489 -2 -12
490 -2 -12
491 -29 40
492 -29 40
493 -29 40
494 -29 40
495 16 -2
496 16 -2
497 16 -2
498 30 11
499 30 11
500 30 11
501 30 11
502 30 11
503 30 11
504 30 11
505 -32 48
506 -32 48
507 -32 48
508 -32 48
509 -32 48
510 -32 48
511 -9 -17
512 -9 -17
513 -9 -17
514 -9 -17
515 8 4
516 8 4
517 8 4
518 25 -14
519 25 -14
520 25 -14
521 25 -14
522 31 -6
523 31 -6
524 31 -6
525 47 -48
526 47 -48
527 47 -48
528 47 -48
529 47 -48
530 47 -48
531 20 -43
532 20 -43
533 20 -43
534 20 -43
535 20 -43
536 39 -44
537 39 -44
538 39 -44
539 39 -44
540 39 -44
541 39 -44
542 8 -16
543 8 -16
544 8 -16
545 8 10
546 8 10
547 8 10
548 8 10
549 -32 7
550 -32 7
551 -32 7
552 -32 7
553 21 45
554 21 45
555 21 45
556 21 45
557 21 45
558 21 45
559 21 45
560 -10 13
561 -10 13
562 -10 13
563 -10 13
564 12 -45
565 12 -45
566 12 -45
567 12 -45
568 26 -15
569 26 -15
570 26 -15
571 26 -15
572 26 -15
573 26 -15
574 15 47
575 15 47
576 27 -41
577 27 -41
578 27 -41
579 27 -41
580 50 29
581 50 29
582 50 29
583 50 29
584 -42 3
585 -42 3
586 -42 3
587 -42 3
588 -46 25
589 -46 25
590 -46 25
591 -46 25
592 -46 25
593 36 -48
594 36 -48
595 36 -48
596 36 -48
597 36 -48
598 -37 -36
599 -37 -36
600 -37 -36
601 -37 -36
602 22 -47
603 22 -47
604 7 -25
605 7 -25
606 15 -35
607 15 -35
608 15 -35
609 -40 50
610 -40 50
611 -40 50
612 -40 50
613 -40 50
614 -40 50
615 -46 35
616 -46 35
617 -46 35
618 -46 35
619 17 -16
620 17 -16
621 17 -16
622 17 -16
623 17 -16
624 17 -16
DEMAND_SECTION
1 0
2 20
3 20
4 5
5 1
6 1
7 1
8 20
9 20
10 1
11 1
12 1
13 20
14 10
15 20
16 10
17 5
18 20
19 5
20 1
21 20
22 5
23 1
24 1
25 1
26 1
27 20
28 20
29 5
30 1
31 1
32 1
33 10
34 5
35 1
36 1
37 1
38 1
39 20
40 1
41 1
42 1
43 1
44 20
45 20
46 1
47 1
48 1
49 10
50 5
51 10
52 1
53 1
54 20
55 20
56 20
57 1
58 1
59 20
60 5
61 1
62 1
63 1
64 20
65 10
66 5
67 1
68 1
69 20
70 5
71 1
72 1
73 1
74 10
75 5
76 1
77 1
78 1
79 1
80 20
81 10
82 5
83 1
84 1
85 1
86 20
87 20
88 20
89 20
90 1
91 10
92 5
93 1
94 1
95 1
96 10
97 5
98 20
99 5
100 1
101 20
102 10
103 1
104 1
105 1
106 20
107 5
108 1
109 1
110 20
111 10
112 1
113 1
114 1
115 1
116 20
117 20
118 10
119 5
120 1
121 20
122 20
123 1
124 20
125 10
126 5
127 10
128 1
129 1
130 1
131 1
132 20
133 5
134 20
135 20
136 5
137 1
138 1
139 1
140 10
141 1
142 1
143 1
144 20
145 20
146 5
147 1
148 1
149 1
150 1
151 20
152 10
153 1
154 1
155 1
156 10
157 5
158 1
159 10
160 5
161 20
162 20
163 5
164 1
165 1
166 1
167 20
168 20
169 1
170 1
171 10
172 5
173 1
174 1
175 1
176 1
177 20
178 10
179 5
180 1
181 1
182 1
183 10
184 1
185 1
186 1
187 1
188 20
189 10
190 1
191 1
192 1
193 10
194 1
195 1
196 1
197 1
198 10
199 5
200 1
201 1
202 1
203 1
204 20
205 20
206 20
207 20
208 5
209 1
210 1
211 20
212 10
213 1
214 1
215 1
216 20
217 20
218 5
219 1
220 20
221 20
222 5
223 1
224 1
225 20
226 20
227 1
228 1
229 20
230 1
231 1
232 10
233 1
234 1
235 1
236 20
237 20
238 1
239 1
240 1
241 10
242 1
243 1
244 20
245 10
246 5
247 1
248 1
249 1
250 20
251 20
252 5
253 1
254 10
255 5
256 20
257 20
258 1
259 1
260 1
261 20
262 10
263 1
264 1
265 20
266 10
267 1
268 1
269 1
270 20
271 20
272 5
273 1
274 20
275 20
276 10
277 5
278 10
279 5
280 1
281 1
282 1
283 20
284 1
285 1
286 1
287 1
288 20
289 20
290 1
291 20
292 10
293 1
294 1
295 1
296 1
297 20
298 20
299 10
300 20
301 20
302 1
303 1
304 1
305 10
306 5
307 1
308 1
309 1
310 1
311 10
312 5
313 1
314 1
315 10
316 1
317 1
318 1
319 1
320 20
321 5
322 20
323 20
324 1
325 1
326 1
327 20
328 5
329 1
330 1
331 1
332 20
333 20
334 5
335 1
336 1
337 1
338 1
339 10
340 5
341 1
342 1
343 1
344 1
345 20
346 10
347 1
348 20
349 1
350 1
351 1
352 1
353 20
354 20
355 10
356 20
357 20
358 1
359 20
360 10
361 5
362 1
363 1
364 1
365 20
366 10
367 20
368 10
369 5
370 1
371 1
372 1
373 20
374 10
375 1
376 1
377 1
378 1
379 10
380 5
381 20
382 20
383 20
384 20
385 1
386 10
387 5
388 20
389 20
390 10
391 10
392 5
393 1
394 1
395 20
396 5
397 1
398 10
399 1
400 1
401 1
402 10
403 5
404 1
405 1
406 1
407 20
408 10
409 1
410 1
411 20
412 20
413 5
414 1
415 1
416 20
417 10
418 5
419 20
420 10
421 20
422 20
423 1
424 1
425 1
426 20
427 5
428 20
429 5
430 1
431 1
432 20
433 20
434 5
435 20
436 10
437 20
438 5
439 1
440 1
441 1
442 1
443 20
444 20
445 1
446 1
447 1
448 1
449 10
450 5
451 1
452 20
453 20
454 5
455 1
456 20
457 5
458 1
459 1
460 20
461 10
462 5
463 1
464 1
465 1
466 20
467 10
468 20
469 20
470 10
471 10
472 1
473 1
474 1
475 1
476 20
477 20
478 1
479 1
480 1
481 1
482 20
483 1
484 20
485 5
486 1
487 1
488 20
489 1
490 1
491 20
492 20
493 1
494 1
495 10
496 5
497 1
498 20
499 20
500 5
501 1
502 1
503 1
504 1
505 20
506 10
507 1
508 1
509 1
510 1
511 20
512 10
513 1
514 1
515 10
516 5
517 1
518 20
519 20
520 1
521 1
522 10
523 5
524 1
525 20
526 20
527 5
528 1
529 1
530 1
531 10
532 1
533 1
534 1
535 1
536 20
537 20
538 5
539 1
540 1
541 1
542 10
543 1
544 1
545 20
546 20
547 5
548 1
549 20
550 20
551 5
552 1
553 20
554 20
555 5
556 1
557 1
558 1
559 1
560 20
561 1
562 1
563 1
564 10
565 1
566 1
567 1
568 20
569 10
570 1
571 1
572 1
573 1
574 20
575 10
576 20
577 1
578 1
579 1
580 20
581 1
582 1
583 1
584 20
585 5
586 1
587 1
588 20
589 5
590 1
591 1
592 1
593 20
594 1
595 1
596 1
597 1
598 20
599 5
600 1
601 1
602 20
603 1
604 20
605 1
606 20
607 20
608 5
609 20
610 10
611 1
612 1
613 1
614 1
615 20
616 20
617 1
618 1
619 20
620 5
621 1
622 1
623 1
624 1
DEPOT_SECTION
1
-1
EOF