Normalized Data/p04_28_normalized_split0.sol
623 -2 3 5 4 1 6 255 258 257 259 256 -10 8 11 7 9 218 216 215 217 201 202 199 198 200 -12 419 418 31 28 27 29 26 30 136 138 -13 317 316 314 315 55 57 56 54 602 601 531 530 534 533 532 -17 19 18 356 355 357 106 105 108 107 67 162 -23 21 20 24 25 22 209 207 205 206 208 493 491 303 -39 41 38 42 389 387 388 50 52 51 379 378 -40 235 238 236 237 239 600 597 598 599 35 34 32 33 36 37 511 -44 45 47 43 46 171 174 499 498 497 516 515 -48 49 433 432 431 544 545 -53 170 173 172 175 223 219 220 221 406 409 -70 68 71 69 72 319 321 322 158 -78 77 75 73 76 74 442 444 443 225 224 -98 97 99 119 118 116 117 142 139 140 141 185 184 183 182 186 197 -104 103 101 102 100 299 300 302 301 490 492 227 226 561 560 -109 110 112 113 114 111 574 573 557 553 386 385 -121 122 120 455 456 328 327 326 619 621 622 620 -123 125 124 364 365 392 391 393 390 495 496 494 -127 126 129 130 128 -132 131 360 359 362 361 358 157 155 156 510 512 513 -148 143 144 383 384 382 310 312 311 313 -149 146 147 145 505 508 507 509 504 506 611 610 612 609 613 608 91 93 376 377 373 375 445 447 446 -160 452 451 454 453 324 325 323 320 159 273 -161 165 163 164 167 332 331 333 335 514 -169 166 168 336 337 334 65 63 64 66 152 153 154 150 151 546 547 -177 180 181 179 178 176 603 604 249 250 252 -191 190 188 187 189 79 80 84 82 81 83 558 552 554 555 556 -203 204 466 465 281 279 278 280 277 523 521 486 -212 213 211 210 214 275 276 274 414 410 413 412 251 -260 261 263 262 569 571 572 567 570 520 518 517 519 -269 270 272 242 241 240 548 550 549 551 -271 95 96 583 14 15 16 350 348 349 351 347 -289 287 288 297 298 296 -304 306 411 481 482 254 253 439 440 437 438 441 436 479 480 477 478 -307 434 435 290 292 293 295 607 606 605 -309 308 305 394 395 396 134 133 135 137 623 618 -318 575 577 578 576 594 595 593 596 592 540 539 538 535 537 536 -338 449 450 448 582 579 581 580 417 415 416 407 408 222 503 500 501 502 -342 339 341 343 340 354 353 352 380 381 -363 268 267 264 266 265 234 232 233 231 469 468 467 -402 404 401 405 87 89 88 424 422 420 421 -403 374 372 92 90 94 115 616 614 615 617 423 -430 427 429 428 285 284 283 282 286 564 563 565 566 399 400 398 397 291 294 542 543 541 -459 462 464 460 461 463 475 476 487 488 489 -471 474 472 470 473 425 426 85 86 559 562 -485 484 483 366 370 371 367 368 369 346 345 344 522 -525 529 527 526 524 528 244 243 247 246 248 245 457 458 329 330 568 -586 584 585 230 228 229 60 58 61 59 62 194 193 196 192 195 587 590 591 589 588 0 





OBJ=
4330.834
BEST_KNOWN=
0.000